p edges 20 75
e 1 2
e 1 3
e 1 4
e 1 6
e 1 17
e 2 3
e 2 7
e 2 9
e 2 10
e 2 11
e 2 13
e 2 14
e 2 16
e 2 18
e 3 9
e 3 10
e 3 13
e 3 16
e 3 18
e 4 5
e 4 17
e 4 19
e 5 19
e 5 20
e 6 7
e 6 8
e 6 9
e 6 10
e 6 11
e 6 14
e 6 15
e 6 16
e 6 17
e 6 20
e 7 8
e 7 9
e 7 10
e 7 11
e 7 13
e 7 14
e 7 15
e 7 16
e 8 9
e 8 10
e 8 11
e 8 14
e 8 15
e 8 16
e 8 20
e 9 10
e 9 11
e 9 14
e 9 15
e 9 16
e 9 20
e 10 11
e 10 14
e 10 15
e 10 16
e 10 20
e 11 12
e 11 13
e 11 14
e 11 15
e 11 16
e 12 13
e 12 18
e 13 14
e 13 18
e 14 15
e 14 16
e 15 16
e 15 20
e 16 20
e 19 20
w 1 428
w 2 301
w 3 270
w 4 571
w 5 428
w 6 142
w 7 142
w 8 142
w 9 142
w 10 142
w 11 15
w 12 571
w 13 413
w 14 127
w 15 142
w 16 142
w 17 428
w 18 15
w 19 428
w 20 142
n 1 c15248
n 2 c15255
n 3 c15256
n 4 c31166
n 5 c33122
n 6 c34153
n 7 c34908
n 8 c36568
n 9 c39305
n 10 c41393
n 11 c42485
n 12 c42493
n 13 c42497
n 14 c42862
n 15 c43224
n 16 c43232
n 17 c43340
n 18 c43455
n 19 c43498
n 20 c50263
o 1 8237
o 2 8244
o 3 8245
o 4 20122
o 5 21543
o 6 22392
o 7 23026
o 8 24406
o 9 26105
o 10 27604
o 11 28463
o 12 28469
o 13 28473
o 14 28721
o 15 29001
o 16 29008
o 17 29097
o 18 29180
o 19 29213
o 20 33325
